SYSTEM = CaHoO3_mp-1183539
PREC = Normal
ISTART = 0
ICHARG = 2
LWAVE = .FALSE.
LCHARG = .TRUE.
ENCUT = 520
EDIFF = 1e-06
NELM = 100
NELMIN = 5
LREAL = Auto
ADDGRID = .TRUE.
ISMEAR = 0
SIGMA = 0.05
GGA = PE
LASPH = .TRUE.
NSW = 100
IBRION = 2
ISIF = 3
EDIFFG = -0.01